
Gurobi 9.1.2 (win64) logging started Mon Dec  6 21:48:42 2021

Gurobi Optimizer version 9.1.2 build v9.1.2rc0 (win64)
Thread count: 8 physical cores, 8 logical processors, using up to 8 threads
Optimize a model with 1 rows, 248 columns and 247 nonzeros
Model fingerprint: 0xe027cf51
Variable types: 1 continuous, 247 integer (247 binary)
Coefficient statistics:
  Matrix range     [1e+00, 1e+01]
  Objective range  [1e+00, 1e+00]
  Bounds range     [1e+02, 1e+02]
  RHS range        [1e+01, 1e+01]
Presolve time: 0.00s
Presolved: 1 rows, 248 columns, 247 nonzeros
Variable types: 1 continuous, 247 integer (247 binary)

Root simplex log...

Iteration    Objective       Primal Inf.    Dual Inf.      Time
       0   -1.0735073e+02   8.275023e-02   0.000000e+00     14s
       3   -1.0735073e+02   0.000000e+00   0.000000e+00     14s

Root relaxation: objective -1.073507e+02, 3 iterations, 0.00 seconds

    Nodes    |    Current Node    |     Objective Bounds      |     Work
 Expl Unexpl |  Obj  Depth IntInf | Incumbent    BestBd   Gap | It/Node Time

     0     0 -107.35073    0    1          - -107.35073      -     -   14s
H    0     0                       0.6476376 -107.35073      -     -   14s
     0     0  -80.67175    0    2    0.64764  -80.67175      -     -   14s
H    0     0                       0.6384335  -80.67175      -     -   14s
H    0     0                       0.4698220  -80.67175      -     -   14s
     0     0  -69.34338    0    5    0.46982  -69.34338      -     -   14s
     0     0  -64.22945    0    8    0.46982  -64.22945      -     -   14s
H    0     0                       0.4698220  -64.22945      -     -   15s
     0     0  -55.22717    0    5    0.46982  -55.22717      -     -   15s
     0     0  -51.91131    0    6    0.46982  -51.91131      -     -   15s
     0     0  -51.39855    0    6    0.46982  -51.39855      -     -   15s
H    0     0                       0.4698220  -51.39855      -     -   15s
     0     0  -51.17687    0    7    0.46982  -51.17687      -     -   15s
H    0     0                       0.4698220  -43.99391  9464%     -   15s
     0     2  -43.99391    0    7    0.46982  -43.99391  9464%     -   15s

Cutting planes:
  Cover: 1
  MIR: 5
  StrongCG: 1
  Lazy constraints: 11

Explored 17 nodes (104 simplex iterations) in 15.75 seconds
Thread count was 8 (of 8 available processors)

Solution count 5: 0.469822 0.469822 0.469822 ... 0.647638

Optimal solution found (tolerance 1.00e-04)
Best objective 4.698220155369e-01, best bound 4.698220155369e-01, gap 0.0000%

User-callback calls 165, time in user-callback 19.44 sec
